69, 3984
3046, 4965
2568, 4237
2988, 3942
3632, 1566
5914, 2506
5238, 3250
2886, 3204
4140, 3505
5034, 3491
1324, 4662
3832, 4052
1029, 2842
5097, 2739
3505, 1399
5184, 3690
4099, 3266
4098, 1548
1064, 2681
3211, 1938
4858, 2251
2059, 3043
5498, 3164
2319, 3154
1139, 1559
3983, 4812
5419, 4487
5429, 2043
1180, 4515
2614, 2174
5580, 2419
5457, 3838
3019, 4334
1419, 2160
2583, 1334
2407, 1837
5745, 3986
2746, 3104
4214, 4327
2943, 1413
4825, 1710
1099, 2469
5849, 2506
5568, 2498
2170, 1995
5659, 4480
5418, 2253
4922, 2768
4828, 4321
4505, 3177
4743, 4677
5751, 3863
5264, 1836
2735, 4089
4819, 2105
4004, 2027
4434, 1873
2380, 2721
3160, 2660
5488, 2097
1872, 2761
5305, 3356
1169, 1358
1041, 1682
3869, 1011
4059, 4052
5637, 4546
3253, 2437
4619, 3446
4504, 2456